TOUR_SECTION
53
48
168
155
190
174
111
19
141
52
121
46
175
96
9
165
150
144
18
178
11
99
109
161
88
63
102
139
23
134
183
198
74
76
110
12
195
132
189
32
57
44
20
3
62
192
143
142
34
137
117
16
120
86
151
39
173
197
26
160
163
83
77
94
50
154
188
131
45
112
114
159
42
36
24
170
179
60
72
152
196
31
82
100
5
157
166
162
35
37
126
8
81
115
90
186
27
15
69
113
71
135
28
79
14
91
194
106
43
147
104
95
138
107
51
184
103
116
182
125
158
56
66
2
21
181
177
84
153
187
85
129
54
92
119
133
61
98
140
10
33
67
148
122
73
6
130
156
191
172
64
108
70
89
40
68
146
97
41
136
78
38
87
200
167
29
13
75
128
30
176
123
124
58
7
145
4
22
1
93
193
80
65
118
149
164
185
25
169
199
59
17
55
49
101
105
127
171
47
180
-1
EOF